100
1000
200
200
200
200
199
199
198
198
197
196
196
196
195
195
194
194
193
192
192
192
191
190
189
189
188
188
188
188
187
187
186
186
185
185
184
183
183
183
183
183
183
183
183
182
180
180
178
177
176
175
174
174
173
172
172
172
172
169
169
168
167
167
167
167
166
166
166
165
165
164
164
164
164
163
162
161
161
161
159
158
158
158
158
158
156
156
156
155
155
155
154
154
154
154
153
152
152
152
152
150
